10
5
775497
0
0
23 17 24 32 24
1
0
100 77 95 73 92
2
0
43 41 32 67 34
3
0
35 62 37 28 36
4
0
27 29 32 29 44
5
0
74 106 103 107 63
6
0
28 40 26 42 42
7
0
159 112 117 153 127
8
0
81 75 82 75 70
9
0
6 5 6 6 8
